POSCAR\(15)
1.0
        6.9039998055         0.0000000000         0.0000000000
        0.0000000000         6.9039998055         0.0000000000
        0.0000000000         0.0000000000        20.4223995209
   Cu    C    O
   32    1    2
Direct
    -0.000000000        -0.000000000         0.414590007
     0.250000000         0.250000000         0.414590007
    -0.000000000         0.250000000         0.144720002
     0.250000000        -0.000000000         0.144720002
    -0.000000000        -0.000000000         0.234419997
     0.250000000         0.250000000         0.234419997
    -0.000000000         0.250000000         0.324889988
     0.250000000        -0.000000000         0.324889988
     0.500000000        -0.000000000         0.414590007
     0.750000017         0.250000000         0.414590007
     0.500000000         0.250000000         0.144720002
     0.750000017        -0.000000000         0.144720002
     0.500000000        -0.000000000         0.234419997
     0.750000017         0.250000000         0.234419997
     0.500000000         0.250000000         0.324889988
     0.750000017        -0.000000000         0.324889988
    -0.000000000         0.500000000         0.414590007
     0.250000000         0.750000017         0.414590007
    -0.000000000         0.750000017         0.144720002
     0.250000000         0.500000000         0.144720002
    -0.000000000         0.500000000         0.234419997
     0.250000000         0.750000017         0.234419997
     0.000000000         0.750000017         0.324889988
     0.250000000         0.500000000         0.324889988
     0.500000000         0.500000000         0.414590007
     0.750000017         0.750000017         0.414590007
     0.500000000         0.750000017         0.144720002
     0.750000017         0.500000000         0.144720002
     0.500000000         0.500000000         0.234419997
     0.750000017         0.750000017         0.234419997
     0.500000000         0.750000017         0.324889988
     0.750000017         0.500000000         0.324889988
     0.371980028         0.378489954         0.529209966
     0.238309996         0.289579989         0.522199976
     0.497519984         0.475270046         0.532800020
