C24 S32
1.0
   9.8966480000000008    0.0000000000000000    0.0000000000000000
   0.0000000000000000    8.7917050000000003    0.0000000000000000
   0.0000000000000000    3.2718319999999999   13.7406720000000000
C S
24 32
direct
   0.5702920000000000    0.9940960000000000    0.0962480000000000 C
   0.0702920000000000    0.0059040000000000    0.4037520000000000 C
   0.4297080000000000    0.0059040000000000    0.9037520000000000 C
   0.9297080000000000    0.9940960000000000    0.5962480000000000 C
   0.6423489999999999    0.9358000000000000    0.0292400000000000 C
   0.1423490000000000    0.0642000000000000    0.4707600000000000 C
   0.3576510000000000    0.0642000000000000    0.9707600000000000 C
   0.8576510000000001    0.9358000000000000    0.5292400000000000 C
   0.7752720000000000    0.8769330000000000    0.0537360000000000 C
   0.2752720000000000    0.1230670000000000    0.4462640000000000 C
   0.2247280000000000    0.1230670000000000    0.9462640000000000 C
   0.7247280000000000    0.8769330000000000    0.5537360000000000 C
   0.3577500000000000    0.5683560000000000    0.9927540000000000 C
   0.8577500000000000    0.4316440000000000    0.5072460000000000 C
   0.6422500000000000    0.4316440000000000    0.0072460000000000 C
   0.1422500000000000    0.5683560000000000    0.4927540000000000 C
   0.4237230000000000    0.5559190000000001    0.0804200000000000 C
   0.9237230000000000    0.4440810000000000    0.4195800000000000 C
   0.5762770000000000    0.4440810000000000    0.9195800000000000 C
   0.0762770000000000    0.5559190000000001    0.5804200000000000 C
   0.3555280000000000    0.6088080000000000    0.1562240000000000 C
   0.8555280000000000    0.3911920000000000    0.3437760000000000 C
   0.6444720000000000    0.3911920000000000    0.8437760000000000 C
   0.1444720000000000    0.6088080000000000    0.6562240000000000 C
   0.4092730000000000    0.0778900000000000    0.0881600000000000 S
   0.9092730000000000    0.9221100000000000    0.4118400000000000 S
   0.5907270000000000    0.9221100000000000    0.9118400000000000 S
   0.0907270000000000    0.0778900000000000    0.5881600000000000 S
   0.6472470000000000    0.9864010000000000    0.2073320000000000 S
   0.1472470000000000    0.0135990000000000    0.2926680000000000 S
   0.3527530000000000    0.0135990000000000    0.7926680000000000 S
   0.8527530000000000    0.9864010000000000    0.7073320000000000 S
   0.8222790000000000    0.8834160000000000    0.1714070000000000 S
   0.3222790000000000    0.1165840000000000    0.3285930000000000 S
   0.1777210000000000    0.1165840000000000    0.8285930000000000 S
   0.6777210000000000    0.8834160000000000    0.6714070000000000 S
   0.8805539999999999    0.8071790000000000    0.9822419999999999 S
   0.3805540000000000    0.1928210000000000    0.5177580000000001 S
   0.1194460000000000    0.1928210000000000    0.0177580000000000 S
   0.6194460000000001    0.8071790000000000    0.4822420000000000 S
   0.4118110000000000    0.5166430000000000    0.8865630000000000 S
   0.9118110000000000    0.4833570000000000    0.6134370000000000 S
   0.5881890000000000    0.4833570000000000    0.1134370000000000 S
   0.0881890000000000    0.5166430000000000    0.3865630000000000 S
   0.1960390000000000    0.6471250000000000    0.9833370000000000 S
   0.6960390000000000    0.3528750000000000    0.5166630000000000 S
   0.8039610000000000    0.3528750000000000    0.0166630000000000 S
   0.3039610000000000    0.6471250000000000    0.4833370000000000 S
   0.1949300000000000    0.6813350000000000    0.1237600000000000 S
   0.6949300000000000    0.3186650000000000    0.3762400000000000 S
   0.8050700000000000    0.3186650000000000    0.8762400000000000 S
   0.3050700000000000    0.6813350000000000    0.6237600000000000 S
   0.4163190000000000    0.6065760000000000    0.2666560000000000 S
   0.9163190000000000    0.3934240000000000    0.2333440000000000 S
   0.5836810000000000    0.3934240000000000    0.7333440000000000 S
   0.0836810000000000    0.6065760000000000    0.7666560000000000 S
