C32 S16
1.0
  -5.0744270000000000    0.0000000000000000    0.1915640000000000
  -0.2775460000000000    0.0000000000000000  -11.3956309999999998
   0.0000000000000000  -16.6991109999999985    0.0000000000000000
C S
32 16
direct
   0.8132750000000000    0.8849190000000000    0.9540350000000000 C
   0.1867250000000000    0.1150810000000000    0.4540350000000000 C
   0.9517000000000000    0.4010100000000000    0.5356290000000000 C
   0.0483000000000000    0.5989900000000000    0.0356290000000000 C
   0.9498220000000001    0.1868620000000000    0.5627640000000000 C
   0.0501780000000000    0.8131380000000000    0.0627640000000000 C
   0.8710950000000000    0.9882190000000000    0.9948970000000000 C
   0.1289050000000000    0.0117810000000000    0.4948970000000000 C
   0.9161560000000000    0.7844950000000001    0.9926850000000000 C
   0.0838440000000000    0.2155050000000000    0.4926850000000000 C
   0.3691610000000000    0.9765260000000000    0.3679590000000000 C
   0.6308390000000000    0.0234740000000000    0.8679590000000000 C
   0.5800570000000000    0.8325100000000000    0.8188010000000000 C
   0.4199430000000000    0.1674900000000000    0.3188010000000000 C
   0.4647500000000000    0.6830020000000000    0.7294130000000000 C
   0.5352500000000000    0.3169980000000000    0.2294130000000000 C
   0.6794190000000000    0.6101839999999999    0.8424320000000000 C
   0.3205810000000000    0.3898160000000000    0.3424320000000000 C
   0.8597440000000000    0.4714730000000000    0.9289130000000000 C
   0.1402560000000000    0.5285270000000000    0.4289130000000000 C
   0.6352170000000000    0.5075040000000000    0.7993070000000000 C
   0.3647830000000000    0.4924960000000000    0.2993070000000000 C
   0.9144670000000000    0.6622680000000000    0.9775300000000000 C
   0.0855330000000000    0.3377320000000000    0.4775300000000000 C
   0.6749240000000000    0.9051280000000000    0.8817780000000000 C
   0.3250760000000000    0.0948720000000000    0.3817780000000000 C
   0.8085190000000000    0.5895000000000000    0.9162530000000000 C
   0.1914810000000000    0.4105000000000000    0.4162530000000000 C
   0.5834520000000000    0.7107420000000000    0.8022010000000001 C
   0.4165480000000000    0.2892580000000000    0.3022010000000000 C
   0.4614690000000000    0.8966040000000000    0.7581690000000000 C
   0.5385310000000000    0.1033960000000000    0.2581690000000000 C
   0.5330810000000000    0.9524610000000000    0.2771810000000000 S
   0.4669190000000000    0.0475390000000000    0.7771810000000000 S
   0.8262940000000000    0.3101330000000000    0.6115010000000000 S
   0.1737060000000000    0.6898670000000000    0.1115010000000000 S
   0.9487510000000000    0.0362940000000000    0.5825920000000000 S
   0.0512490000000000    0.9637060000000000    0.0825920000000000 S
   0.4651450000000000    0.5321709999999999    0.7096920000000000 S
   0.5348550000000000    0.4678290000000000    0.2096920000000000 S
   0.7532340000000000    0.3837380000000000    0.8489130000000000 S
   0.2467660000000000    0.6162620000000000    0.3489130000000000 S
   0.7574640000000000    0.1123040000000000    0.9447170000000000 S
   0.2425360000000000    0.8876960000000000    0.4447170000000000 S
   0.3479570000000000    0.8072680000000000    0.6799860000000000 S
   0.6520430000000000    0.1927320000000000    0.1799860000000000 S
   0.9561050000000000    0.5520610000000000    0.5161610000000000 S
   0.0438950000000000    0.4479390000000000    0.0161610000000000 S
