C1 S14
1.0
   7.4301562199999998    0.0019572500000000   -0.5834041200000000
  -0.6311606300000000    7.4033005799999998   -0.5834041200000000
   0.0017967200000000    0.0019572600000000    7.4530251999999999
C S
1 14
direct
   0.5000000000000000    0.5000000000000000    0.5000000000000000 C
   0.2235184600000000    0.2235184600000000    0.8388164900000000 S
   0.8388164900000000    0.2235184600000000    0.2235184600000000 S
   0.1611835100000000    0.7764815400000000    0.7764815400000000 S
   0.7764815400000000    0.1611835100000000    0.7764815400000000 S
   0.7764815400000000    0.7764815400000000    0.1611835100000000 S
   0.3029481400000000    0.6970518600000000   -0.0000000000000000 S
  -0.0000000000000000    0.3029481400000000    0.6970518600000000 S
   0.6970518600000000    0.0000000000000000    0.3029481400000000 S
   0.6970518600000000    0.3029481400000000    0.0000000000000000 S
   0.0000000000000000    0.6970518600000000    0.3029481400000000 S
   0.3029481400000000   -0.0000000000000000    0.6970518600000000 S
   0.3694164700000000    0.3694164700000000    0.3694164700000000 S
   0.6305835300000000    0.6305835300000000    0.6305835300000000 S
   0.2235184600000000    0.8388164900000000    0.2235184600000000 S
