C8 S40
1.0
  10.8724465200000004    0.0000000000000000    0.0000000000000000
   0.0000000000000000   14.1909960300000009    0.0000000000000000
   0.0000000000000000    0.0000000000000000   31.2214633399999997
C S
8 40
direct
   0.1827261000000000    0.2500000000000000    0.0973920500000000 C
   0.8172739000000000    0.7500000000000000    0.9026079500000000 C
   0.3172739000000000    0.7500000000000000    0.5973920500000000 C
   0.6827261000000000    0.2500000000000000    0.4026079500000000 C
   0.2622781000000000    0.2500000000000000    0.6005228700000000 C
   0.7377219000000000    0.7500000000000000    0.3994771300000000 C
   0.2377219000000000    0.7500000000000000    0.1005228700000000 C
   0.7622781000000000    0.2500000000000000    0.8994771300000000 C
   0.2343844300000000    0.1325249200000000    0.3597978800000000 S
   0.7656155700000000    0.8674750800000000    0.6402021200000000 S
   0.2656155700000000    0.8674750800000000    0.8597978800000000 S
   0.7656155700000000    0.6325249200000000    0.6402021200000000 S
   0.7343844300000000    0.1325249200000000    0.1402021200000000 S
   0.2343844300000000    0.3674750800000000    0.3597978800000000 S
   0.7343844300000000    0.3674750800000000    0.1402021200000000 S
   0.2656155700000000    0.6325249200000000    0.8597978800000000 S
   0.3314246300000000    0.2500000000000000    0.2307238600000000 S
   0.6685753700000000    0.7500000000000000    0.7692761400000000 S
   0.1685753700000000    0.7500000000000000    0.7307238600000000 S
   0.8314246300000000    0.2500000000000000    0.2692761400000000 S
   0.1242344000000000    0.2500000000000000    0.3636845800000000 S
   0.8757656000000000    0.7500000000000000    0.6363154200000000 S
   0.3757656000000000    0.7500000000000000    0.8636845800000000 S
   0.6242344000000000    0.2500000000000000    0.1363154200000000 S
   0.2305858200000000    0.0811200200000000    0.2980688300000000 S
   0.7694141799999999    0.9188799800000000    0.7019311700000000 S
   0.2694141800000000    0.9188799800000000    0.7980688300000000 S
   0.7694141799999999    0.5811200200000000    0.7019311700000000 S
   0.7305858200000001    0.0811200200000000    0.2019311700000000 S
   0.2305858200000000    0.4188799800000000    0.2980688300000000 S
   0.7305858200000001    0.4188799800000000    0.2019311700000000 S
   0.2694141800000000    0.5811200200000000    0.7980688300000000 S
   0.3810390300000000    0.1314644400000000    0.2648102400000000 S
   0.6189609700000001    0.8685355600000000    0.7351897600000000 S
   0.1189609700000000    0.8685355600000000    0.7648102400000000 S
   0.6189609700000001    0.6314644400000000    0.7351897600000000 S
   0.8810390299999999    0.1314644400000000    0.2351897600000000 S
   0.3810390300000000    0.3685355600000000    0.2648102400000000 S
   0.8810390299999999    0.3685355600000000    0.2351897600000000 S
   0.1189609700000000    0.6314644400000000    0.7648102400000000 S
   0.2933782300000000    0.2500000000000000    0.0657567500000000 S
   0.7066217700000000    0.7500000000000000    0.9342432500000000 S
   0.2066217700000000    0.7500000000000000    0.5657567500000000 S
   0.7933782300000000    0.2500000000000000    0.4342432500000000 S
   0.0720436000000000    0.2500000000000000    0.1290509000000000 S
   0.9279564000000000    0.7500000000000000    0.8709491000000000 S
   0.4279564000000000    0.7500000000000000    0.6290509000000000 S
   0.5720436000000000    0.2500000000000000    0.3709491000000000 S
