C8 S12
1.0
  -5.7953400000000004    0.0000000000000000    1.9504490000000001
   0.0000000000000000   -6.7001700000000000    0.0000000000000000
   5.9204749999999997    0.0000000000000000    9.4432639999999992
C S
8 12
direct
   0.3933570000000000    0.9953850000000000    0.4626470000000000 C
   0.6066430000000000    0.0046150000000000    0.5373530000000000 C
   0.1066430000000000    0.4953850000000000    0.0373530000000000 C
   0.8933570000000000    0.5046150000000000    0.9626470000000000 C
   0.8915980000000000    0.1937970000000000    0.1022980000000000 C
   0.1084020000000000    0.8062030000000000    0.8977020000000000 C
   0.6084020000000000    0.6937970000000000    0.3977020000000000 C
   0.3915980000000000    0.3062030000000000    0.6022980000000000 C
   0.3396660000000000    0.7993180000000000    0.3586150000000000 S
   0.6603340000000000    0.2006820000000000    0.6413860000000000 S
   0.1603340000000000    0.2993180000000000    0.1413850000000000 S
   0.8396660000000000    0.7006820000000000    0.8586140000000000 S
   0.8192880000000000    0.9973200000000000    0.1733460000000000 S
   0.1807120000000000    0.0026800000000000    0.8266540000000000 S
   0.6807120000000000    0.4973200000000000    0.3266540000000000 S
   0.3192880000000000    0.5026800000000000    0.6733460000000000 S
   0.2926910000000000    0.6811100000000000    0.0177880000000000 S
   0.7073090000000000    0.3188900000000000    0.9822120000000000 S
   0.2073090000000000    0.1811100000000000    0.4822120000000000 S
   0.7926910000000000    0.8188900000000000    0.5177880000000000 S
