C2 S2
1.0
   3.5648240000000002    0.0000000000000000    0.0000000000000000
   0.0000000000000000    3.5648240000000002    0.0000000000000000
   0.0000000000000000    0.0000000000000000    4.1266730000000003
C S
2 2
direct
   0.5000000000000000    0.5000000000000000    0.0000000000000000 C
   0.0000000000000000    0.0000000000000000    0.0000000000000000 C
   0.0000000000000000    0.5000000000000000    0.1594930000000000 S
   0.5000000000000000    0.0000000000000000    0.8405070000000000 S
