C120 S32
1.0
  11.1970500000000008   11.0961789999999993    0.0000000000000000
 -11.1970500000000008   11.0961789999999993    0.0000000000000000
   0.0000000000000000    4.0098989999999999   10.4454410000000006
C S
120 32
direct
   0.7471330000000000    0.4251440000000000    0.6458480000000000 C
   0.5748560000000000    0.2528670000000000    0.8541520000000000 C
   0.2528670000000000    0.5748560000000000    0.3541520000000000 C
   0.4251440000000000    0.7471330000000000    0.1458480000000000 C
   0.8222260000000000    0.4353230000000000    0.6955930000000000 C
   0.5646770000000000    0.1777740000000000    0.8044070000000000 C
   0.1777740000000000    0.5646770000000000    0.3044070000000000 C
   0.4353230000000000    0.8222260000000000    0.1955930000000000 C
   0.7931840000000000    0.4062560000000000    0.8343960000000000 C
   0.5937440000000000    0.2068160000000000    0.6656040000000000 C
   0.2068160000000000    0.5937440000000000    0.1656040000000000 C
   0.4062560000000000    0.7931840000000000    0.3343960000000000 C
   0.7001390000000000    0.3781950000000000    0.8705960000000000 C
   0.6218050000000001    0.2998610000000000    0.6294040000000000 C
   0.2998610000000000    0.6218050000000001    0.1294040000000000 C
   0.3781950000000000    0.7001390000000000    0.3705960000000000 C
   0.6716210000000000    0.3898430000000000    0.7540280000000000 C
   0.6101569999999999    0.3283790000000000    0.7459720000000000 C
   0.3283790000000000    0.6101569999999999    0.2459720000000000 C
   0.3898430000000000    0.6716210000000000    0.2540280000000000 C
   0.9634500000000000    0.3705340000000000    0.7032040000000001 C
   0.6294660000000000    0.0365500000000000    0.7967959999999999 C
   0.0365500000000000    0.6294660000000000    0.2967960000000000 C
   0.3705340000000000    0.9634500000000000    0.2032040000000000 C
   0.9057650000000000    0.4177980000000000    0.6311770000000000 C
   0.5822020000000000    0.0942350000000000    0.8688230000000000 C
   0.0942350000000000    0.5822020000000000    0.3688230000000000 C
   0.4177980000000000    0.9057650000000000    0.1311770000000000 C
   0.9173740000000000    0.3893760000000000    0.5146080000000000 C
   0.6106239999999999    0.0826260000000000    0.9853920000000000 C
   0.0826260000000000    0.6106239999999999    0.4853920000000000 C
   0.3893760000000000    0.9173740000000000    0.0146080000000000 C
   0.9822670000000000    0.3244770000000000    0.5146350000000000 C
   0.6755230000000000    0.0177330000000000    0.9853650000000000 C
   0.0177330000000000    0.6755230000000000    0.4853650000000000 C
   0.3244770000000000    0.9822670000000000    0.0146350000000000 C
   0.0107460000000000    0.3128370000000000    0.6311680000000000 C
   0.6871630000000000    0.9892540000000000    0.8688320000000000 C
   0.9892540000000000    0.6871630000000000    0.3688320000000000 C
   0.3128370000000000    0.0107460000000000    0.1311680000000000 C
   0.9354700000000000    0.3425430000000000    0.8369090000000000 C
   0.6574570000000000    0.0645300000000000    0.6630910000000000 C
   0.0645300000000000    0.6574570000000000    0.1630910000000000 C
   0.3425430000000000    0.9354700000000000    0.3369090000000000 C
   0.9537580000000000    0.2558270000000000    0.9038270000000000 C
   0.7441730000000000    0.0462420000000000    0.5961730000000000 C
   0.0462420000000000    0.7441730000000000    0.0961730000000000 C
   0.2558270000000000    0.9537580000000000    0.4038270000000000 C
   0.8783320000000000    0.2205010000000000    0.0120930000000000 C
   0.7794990000000001    0.1216680000000000    0.4879070000000000 C
   0.1216680000000000    0.7794990000000001    0.9879070000000000 C
   0.2205010000000000    0.8783320000000000    0.5120930000000000 C
   0.8134320000000000    0.2853740000000000    0.0120240000000000 C
   0.7146260000000000    0.1865680000000000    0.4879760000000000 C
   0.1865680000000000    0.7146260000000000    0.9879760000000000 C
   0.2853740000000000    0.8134320000000000    0.5120240000000000 C
   0.8487590000000000    0.3607540000000000    0.9037490000000000 C
   0.6392460000000000    0.1512410000000000    0.5962510000000000 C
   0.1512410000000000    0.6392460000000000    0.0962510000000000 C
   0.3607540000000000    0.8487590000000000    0.4037490000000000 C
   0.9992520000000000    0.2002820000000000    0.8344120000000000 C
   0.7997180000000000    0.0007480000000000    0.6655880000000000 C
   0.0007480000000000    0.7997180000000000    0.1655880000000000 C
   0.2002820000000000    0.9992520000000000    0.3344120000000000 C
   0.0283040000000000    0.2293010000000000    0.6955570000000000 C
   0.7706990000000000    0.9716960000000000    0.8044430000000000 C
   0.9716960000000000    0.7706990000000000    0.3044430000000000 C
   0.2293010000000000    0.0283040000000000    0.1955570000000000 C
   0.0181270000000000    0.1541830000000000    0.6458300000000000 C
   0.8458170000000000    0.9818730000000000    0.8541700000000000 C
   0.9818730000000000    0.8458170000000000    0.3541700000000000 C
   0.1541830000000000    0.0181270000000000    0.1458300000000000 C
   0.9827770000000000    0.0787070000000000    0.7540310000000000 C
   0.9212930000000000    0.0172230000000000    0.7459690000000000 C
   0.0172230000000000    0.9212930000000000    0.2459690000000000 C
   0.0787070000000000    0.9827770000000000    0.2540310000000000 C
   0.9710990000000000    0.1072550000000000    0.8705430000000000 C
   0.8927450000000000    0.0289010000000000    0.6294570000000000 C
   0.0289010000000000    0.8927450000000000    0.1294570000000000 C
   0.1072550000000000    0.9710990000000000    0.3705430000000000 C
   0.8984310000000000    0.0732140000000000    0.9747600000000000 C
   0.9267860000000000    0.1015690000000000    0.5252400000000000 C
   0.1015690000000000    0.9267860000000000    0.0252400000000000 C
   0.0732140000000000    0.8984310000000000    0.4747600000000000 C
   0.9906270000000000    0.1654050000000000    0.5336360000000000 C
   0.8345950000000000    0.0093730000000000    0.9663640000000000 C
   0.0093730000000000    0.8345950000000000    0.4663640000000000 C
   0.1654050000000000    0.9906270000000000    0.0336360000000000 C
   0.9723650000000000    0.2521300000000000    0.4668430000000000 C
   0.7478700000000000    0.0276350000000000    0.0331570000000000 C
   0.0276350000000000    0.7478700000000000    0.5331570000000000 C
   0.2521300000000000    0.9723650000000000    0.9668430000000000 C
   0.8972680000000000    0.2419080000000000    0.4170380000000000 C
   0.7580920000000000    0.1027320000000000    0.0829620000000000 C
   0.1027320000000000    0.7580920000000000    0.5829620000000000 C
   0.2419080000000000    0.8972680000000000    0.9170380000000000 C
   0.8691380000000000    0.1488480000000000    0.4530980000000000 C
   0.8511520000000000    0.1308620000000000    0.0469020000000000 C
   0.1308620000000000    0.8511520000000000    0.5469020000000000 C
   0.1488480000000000    0.8691380000000000    0.9530980000000000 C
   0.7417220000000000    0.2762090000000000    0.4531410000000000 C
   0.7237910000000000    0.2582780000000000    0.0468590000000000 C
   0.2582780000000000    0.7237910000000000    0.5468590000000000 C
   0.2762090000000000    0.7417220000000000    0.9531410000000000 C
   0.8347830000000001    0.3043850000000000    0.4170020000000000 C
   0.6956150000000000    0.1652170000000000    0.0829980000000000 C
   0.1652170000000000    0.6956150000000000    0.5829980000000000 C
   0.3043850000000000    0.8347830000000001    0.9170020000000000 C
   0.8450360000000000    0.3795230000000000    0.4667310000000000 C
   0.6204769999999999    0.1549640000000000    0.0332690000000000 C
   0.1549640000000000    0.6204769999999999    0.5332690000000000 C
   0.3795230000000000    0.8450360000000000    0.9667310000000000 C
   0.7583060000000000    0.3977210000000000    0.5336290000000000 C
   0.6022790000000000    0.2416940000000000    0.9663710000000000 C
   0.2416940000000000    0.6022790000000000    0.4663710000000000 C
   0.3977210000000000    0.7583060000000000    0.0336290000000000 C
   0.6660840000000000    0.3055700000000000    0.9748080000000000 C
   0.6944300000000000    0.3339160000000000    0.5251920000000000 C
   0.3339160000000000    0.6944300000000000    0.0251920000000000 C
   0.3055700000000000    0.6660840000000000    0.4748080000000000 C
   0.7308220000000000    0.8787360000000000    0.3701400000000000 S
   0.1212640000000000    0.2691780000000000    0.1298600000000000 S
   0.2691780000000000    0.1212640000000000    0.6298600000000000 S
   0.8787360000000000    0.7308220000000000    0.8701400000000000 S
   0.7245370000000000    0.7786300000000000    0.2836470000000000 S
   0.2213700000000000    0.2754630000000000    0.2163530000000000 S
   0.2754630000000000    0.2213700000000000    0.7163530000000000 S
   0.7786300000000000    0.7245370000000000    0.7836470000000000 S
   0.7263440000000000    0.6599780000000000    0.4130020000000000 S
   0.3400220000000000    0.2736560000000000    0.0869980000000000 S
   0.2736560000000000    0.3400220000000000    0.5869980000000000 S
   0.6599780000000000    0.7263440000000000    0.9130020000000000 S
   0.5990590000000000    0.6064010000000000    0.4991230000000000 S
   0.3935990000000000    0.4009410000000000    0.0008770000000000 S
   0.4009410000000000    0.3935990000000000    0.5008770000000000 S
   0.6064010000000000    0.5990590000000000    0.9991230000000000 S
   0.5576680000000001    0.6356960000000000    0.6730420000000000 S
   0.3643040000000000    0.4423320000000000    0.8269580000000000 S
   0.4423320000000000    0.3643040000000000    0.3269580000000000 S
   0.6356960000000000    0.5576680000000001    0.1730420000000000 S
   0.4823850000000000    0.7420040000000000    0.6537130000000000 S
   0.2579960000000000    0.5176150000000000    0.8462870000000000 S
   0.5176150000000000    0.2579960000000000    0.3462870000000000 S
   0.7420040000000000    0.4823850000000000    0.1537130000000000 S
   0.5586590000000000    0.8558810000000000    0.6264170000000000 S
   0.1441190000000000    0.4413410000000000    0.8735830000000000 S
   0.4413410000000000    0.1441190000000000    0.3735830000000000 S
   0.8558810000000000    0.5586590000000000    0.1264170000000000 S
   0.6054970000000000    0.9152560000000000    0.4332960000000000 S
   0.0847440000000000    0.3945030000000000    0.0667040000000000 S
   0.3945030000000000    0.0847440000000000    0.5667040000000000 S
   0.9152560000000000    0.6054970000000000    0.9332960000000000 S
