C6 S16
1.0
   4.9978970000000000    0.0000000000000000    0.0000000000000000
  -0.0964590000000000    9.3752130000000005    0.0000000000000000
  -1.8269960000000001   -2.1894879999999999   12.2343930000000007
C S
6 16
direct
   0.6940330000000000    0.8568240000000000    0.7910760000000000 C
   0.3059670000000000    0.1431760000000000    0.2089240000000000 C
   0.6583990000000000    0.7916310000000000    0.6830210000000000 C
   0.3416010000000000    0.2083690000000000    0.3169790000000000 C
   0.3694960000000000    0.0265880000000000    0.6881429999999999 C
   0.6305040000000000    0.9734120000000001    0.3118570000000000 C
   0.1861250000000000    0.3647690000000000    0.3750740000000000 S
   0.8138750000000000    0.6352310000000000    0.6249260000000000 S
   0.3788740000000000    0.5341960000000000    0.3270930000000000 S
   0.6211260000000000    0.4658040000000000    0.6729070000000000 S
   0.1641590000000000    0.5509910000000000    0.1761420000000000 S
   0.8358409999999999    0.4490090000000000    0.8238580000000000 S
   0.2964500000000000    0.3797190000000000    0.0718960000000000 S
   0.7035500000000000    0.6202810000000000    0.9281040000000000 S
   0.0969800000000000    0.1984220000000000    0.0991550000000000 S
   0.9030200000000000    0.8015780000000000    0.9008450000000000 S
   0.5225090000000000    0.0162120000000000    0.8205200000000000 S
   0.4774910000000000    0.9837880000000000    0.1794800000000000 S
   0.4460750000000000    0.8786740000000000    0.5938900000000000 S
   0.5539250000000000    0.1213260000000000    0.4061100000000000 S
   0.1724830000000000    0.1573310000000000    0.6565710000000000 S
   0.8275169999999999    0.8426690000000000    0.3434290000000000 S
