C16 S48
1.0
  22.9063060000000007    0.0000000000000000    0.0000000000000000
   0.0000000000000000    5.9185420000000004    0.0000000000000000
   0.0000000000000000    0.0192130000000000   13.4946059999999992
C S
16 48
direct
   0.6453250000000000    0.5503550000000000    0.4561020000000000 C
   0.1453250000000000    0.4496450000000000    0.0438980000000000 C
   0.3546750000000000    0.4496450000000000    0.5438980000000000 C
   0.8546750000000000    0.5503550000000000    0.9561020000000000 C
   0.4854330000000000    0.0621760000000000    0.2805210000000000 C
   0.9854330000000000    0.9378240000000000    0.2194790000000000 C
   0.5145670000000000    0.9378240000000000    0.7194790000000000 C
   0.0145670000000000    0.0621760000000000    0.7805210000000000 C
   0.6044950000000000    0.5187810000000000    0.0440870000000000 C
   0.1044950000000000    0.4812190000000000    0.4559130000000000 C
   0.3955050000000000    0.4812190000000000    0.9559130000000000 C
   0.8955050000000000    0.5187810000000000    0.5440870000000000 C
   0.7629280000000001    0.0799850000000000    0.2174730000000000 C
   0.2629280000000000    0.9200150000000000    0.2825270000000000 C
   0.2370720000000000    0.9200150000000000    0.7825270000000000 C
   0.7370719999999999    0.0799850000000000    0.7174730000000000 C
   0.5854320000000000    0.6620120000000000    0.5074260000000000 S
   0.0854320000000000    0.3379880000000000    0.9925740000000000 S
   0.4145680000000000    0.3379880000000000    0.4925740000000000 S
   0.9145680000000000    0.6620120000000000    0.0074260000000000 S
   0.6675489999999999    0.2959020000000000    0.4937730000000000 S
   0.1675490000000000    0.7040980000000000    0.0062270000000000 S
   0.3324510000000000    0.7040980000000000    0.5062270000000000 S
   0.8324510000000001    0.2959020000000000    0.9937730000000000 S
   0.6807390000000000    0.6954280000000000    0.3684550000000000 S
   0.1807390000000000    0.3045720000000000    0.1315450000000000 S
   0.3192610000000000    0.3045720000000000    0.6315450000000000 S
   0.8192610000000000    0.6954280000000000    0.8684550000000000 S
   0.5455980000000000    0.1798450000000000    0.3278860000000000 S
   0.0455980000000000    0.8201550000000000    0.1721140000000000 S
   0.4544020000000000    0.8201550000000000    0.6721140000000000 S
   0.9544020000000000    0.1798450000000000    0.8278860000000000 S
   0.4495750000000000    0.1901410000000000    0.1884600000000000 S
   0.9495749999999999    0.8098590000000000    0.3115400000000000 S
   0.5504250000000001    0.8098590000000000    0.8115400000000000 S
   0.0504250000000000    0.1901410000000000    0.6884600000000000 S
   0.4613790000000000    0.8177790000000000    0.3268610000000000 S
   0.9613790000000000    0.1822210000000000    0.1731390000000000 S
   0.5386210000000000    0.1822210000000000    0.6731390000000000 S
   0.0386210000000000    0.8177790000000000    0.8268610000000000 S
   0.6618530000000000    0.6450600000000000    0.9911759999999999 S
   0.1618530000000000    0.3549400000000000    0.5088240000000001 S
   0.3381470000000000    0.3549400000000000    0.0088240000000000 S
   0.8381470000000000    0.6450600000000000    0.4911760000000000 S
   0.5825780000000000    0.2688460000000000    0.0005510000000000 S
   0.0825780000000000    0.7311540000000000    0.4994490000000000 S
   0.4174220000000000    0.7311540000000000    0.9994490000000000 S
   0.9174220000000000    0.2688460000000000    0.5005510000000000 S
   0.5699550000000000    0.6409070000000000    0.1390200000000000 S
   0.0699550000000000    0.3590930000000000    0.3609800000000000 S
   0.4300450000000000    0.3590930000000000    0.8609800000000000 S
   0.9300450000000000    0.6409070000000000    0.6390200000000000 S
   0.7963430000000000    0.2407810000000000    0.3014910000000000 S
   0.2963430000000000    0.7592190000000000    0.1985090000000000 S
   0.2036570000000000    0.7592190000000000    0.6985090000000000 S
   0.7036570000000000    0.2407810000000000    0.8014910000000000 S
   0.6977190000000000    0.1552190000000000    0.1730090000000000 S
   0.1977190000000000    0.8447810000000000    0.3269910000000000 S
   0.3022810000000000    0.8447810000000000    0.8269910000000000 S
   0.8022810000000000    0.1552190000000000    0.6730090000000000 S
   0.7939090000000000    0.8417330000000000    0.1773340000000000 S
   0.2939090000000000    0.1582670000000000    0.3226660000000000 S
   0.2060910000000000    0.1582670000000000    0.8226660000000000 S
   0.7060910000000000    0.8417330000000000    0.6773340000000000 S
