C16 S24
1.0
  -8.1180780000000006    0.0000000000000000    2.4449019999999999
   0.3047360000000000    0.0000000000000000  -10.4687560000000008
   0.0000000000000000  -10.6698670000000000    0.0000000000000000
C S
16 24
direct
   0.3814770000000000    0.6594610000000000    0.5779710000000000 C
   0.6185230000000000    0.3405390000000000    0.4220290000000000 C
   0.6185230000000000    0.8405390000000000    0.0779710000000000 C
   0.3814770000000000    0.1594610000000000    0.9220290000000000 C
   0.7802270000000000    0.5683040000000000    0.4823620000000000 C
   0.2197730000000000    0.4316960000000000    0.5176380000000000 C
   0.2197730000000000    0.9316960000000000    0.9823620000000000 C
   0.7802270000000000    0.0683040000000000    0.0176380000000000 C
   0.8744200000000000    0.5449070000000000    0.7117440000000000 C
   0.1255800000000000    0.4550930000000000    0.2882560000000000 C
   0.1255800000000000    0.9550930000000000    0.2117440000000000 C
   0.8744200000000000    0.0449070000000000    0.7882560000000000 C
   0.7176110000000000    0.9327660000000000    0.9887899999999999 C
   0.2823890000000000    0.0672340000000000    0.0112100000000000 C
   0.2823890000000000    0.5672340000000000    0.4887900000000000 C
   0.7176110000000000    0.4327660000000000    0.5112100000000001 C
   0.8957980000000000    0.6722410000000000    0.5979030000000000 S
   0.1042020000000000    0.3277590000000000    0.4020970000000000 S
   0.1042020000000000    0.8277590000000000    0.0979030000000000 S
   0.8957980000000000    0.1722410000000000    0.9020970000000000 S
   0.4668340000000000    0.8249390000000000    0.5625940000000000 S
   0.5331660000000000    0.1750610000000000    0.4374060000000000 S
   0.5331660000000000    0.6750610000000000    0.0625940000000000 S
   0.4668340000000000    0.3249390000000000    0.9374060000000000 S
   0.4092120000000000    0.5754730000000000    0.7137470000000000 S
   0.5907880000000000    0.4245270000000000    0.2862530000000000 S
   0.5907880000000000    0.9245270000000000    0.2137470000000000 S
   0.4092120000000000    0.0754730000000000    0.7862530000000000 S
   0.2666080000000000    0.8800249999999999    0.8372440000000000 S
   0.7333920000000000    0.1199750000000000    0.1627560000000000 S
   0.7333920000000000    0.6199750000000001    0.3372440000000000 S
   0.2666080000000000    0.3800250000000000    0.6627560000000000 S
   0.9505470000000000    0.5737950000000001    0.8542860000000000 S
   0.0494530000000000    0.4262050000000000    0.1457140000000000 S
   0.0494530000000000    0.9262049999999999    0.3542860000000000 S
   0.9505470000000000    0.0737950000000000    0.6457140000000000 S
   0.7629950000000000    0.8848430000000000    0.8411080000000000 S
   0.2370050000000000    0.1151570000000000    0.1588920000000000 S
   0.2370050000000000    0.6151570000000000    0.3411080000000000 S
   0.7629950000000000    0.3848430000000000    0.6588920000000000 S
