C1 S30
1.0
  18.5068620000000017    7.8089940000000002    0.0000000000000000
 -18.5068620000000017    7.8089940000000002    0.0000000000000000
   0.0000000000000000    0.6499130000000000   16.4418429999999987
C S
1 30
direct
   0.0000000000000000    0.0000000000000000    0.0000000000000000 C
   0.5257849999999999    0.4744880000000000    0.2660380000000000 S
   0.4742150000000000    0.5255120000000000    0.7339620000000000 S
   0.4607620000000000    0.2627350000000000    0.5372990000000000 S
   0.5255120000000000    0.4742150000000000    0.7339620000000000 S
   0.5392380000000000    0.7372649999999999    0.4627010000000000 S
   0.4744880000000000    0.5257849999999999    0.2660380000000000 S
   0.2546660000000000    0.5261160000000000    0.4598930000000000 S
   0.7372649999999999    0.5392380000000000    0.4627010000000000 S
   0.7453340000000001    0.4738840000000000    0.5401070000000000 S
   0.2627350000000000    0.4607620000000000    0.5372990000000000 S
   0.4738840000000000    0.7453340000000001    0.5401070000000000 S
   0.5261160000000000    0.2546660000000000    0.4598930000000000 S
   0.0049790000000000    0.3169380000000000    0.4996920000000000 S
   0.9950210000000000    0.6830619999999999    0.5003080000000000 S
   0.3426900000000000    0.5352830000000000    0.0000910000000000 S
   0.6830619999999999    0.9950210000000000    0.5003080000000000 S
   0.6573099999999999    0.4647170000000000    0.9999090000000000 S
   0.3169380000000000    0.0049790000000000    0.4996920000000000 S
   0.4997530000000000    0.0000840000000000    0.3134800000000000 S
   0.4647170000000000    0.6573099999999999    0.9999090000000000 S
   0.5002470000000000    0.9999160000000000    0.6865200000000000 S
   0.5352830000000000    0.3426900000000000    0.0000910000000000 S
   0.9999160000000000    0.5002470000000000    0.6865200000000000 S
   0.0000840000000000    0.4997530000000000    0.3134800000000000 S
   0.9977680000000000    0.9977680000000000    0.0944910000000000 S
   0.0022320000000000    0.0022320000000000    0.9055090000000000 S
   0.9678220000000000    0.1538000000000000    0.9985140000000000 S
   0.0321780000000000    0.8462000000000000    0.0014860000000000 S
   0.1538000000000000    0.9678220000000000    0.9985140000000000 S
   0.8462000000000000    0.0321780000000000    0.0014860000000000 S
