AMS_DATA\(1\0\0)
1.0
        7.2298998833         0.0000000000         0.0000000000
        0.0000000000         7.2298998833         0.0000000000
        0.0000000000         0.0000000000        20.4223995209
   Cu
   32
Direct
    -0.000000000        -0.000000000         0.412409982
     0.250000000         0.250000000         0.412409982
    -0.000000000         0.250000000         0.146900003
     0.250000000        -0.000000000         0.146900003
    -0.000000000        -0.000000000         0.235400014
     0.250000000         0.250000000         0.235400014
    -0.000000000         0.250000000         0.323909995
     0.250000000         0.000000000         0.323909995
     0.500000000        -0.000000000         0.412409982
     0.749999984         0.250000000         0.412409982
     0.500000000         0.250000000         0.146900003
     0.749999984        -0.000000000         0.146900003
     0.500000000        -0.000000000         0.235400014
     0.749999984         0.250000000         0.235400014
     0.500000000         0.250000000         0.323909995
     0.749999984         0.000000000         0.323909995
    -0.000000000         0.500000000         0.412409982
     0.250000000         0.749999984         0.412409982
    -0.000000000         0.749999984         0.146900003
     0.250000000         0.500000000         0.146900003
    -0.000000000         0.500000000         0.235400014
     0.250000000         0.749999984         0.235400014
     0.000000000         0.749999984         0.323909995
     0.250000000         0.500000000         0.323909995
     0.500000000         0.500000000         0.412409982
     0.749999984         0.749999984         0.412409982
     0.500000000         0.749999984         0.146900003
     0.749999984         0.500000000         0.146900003
     0.500000000         0.500000000         0.235400014
     0.749999984         0.749999984         0.235400014
     0.500000000         0.749999984         0.323909995
     0.749999984         0.500000000         0.323909995
